#FORMAT=WebAnno TSV 3.2


#Text=[0034] where .alpha..sub.i and .beta..sub.i are functions of each cylinder's elastic constants: 15i =( 1 - 2 v i)( 1 + v i )E i i = 1 + v iE i,
#Text=[0035] v.sub.i is Poisson's ratio, and E.sub.i is Young's Modulus.
1-1	0-1	[	
1-2	1-5	0034	
1-3	5-6	]	
1-4	7-12	where	
1-5	13-14	.	
1-6	14-19	alpha	
1-7	19-20	.	
1-8	20-21	.	
1-9	21-26	sub.i	
1-10	27-30	and	
1-11	31-32	.	
1-12	32-36	beta	
1-13	36-37	.	
1-14	37-38	.	
1-15	38-43	sub.i	
1-16	44-47	are	
1-17	48-57	functions	
1-18	58-60	of	
1-19	61-65	each	
1-20	66-76	cylinder's	
1-21	77-84	elastic	
1-22	85-94	constants	
1-23	94-95	:	
1-24	96-99	15i	
1-25	100-101	=	
1-26	101-102	(	
1-27	103-104	1	
1-28	105-106	-	
1-29	107-108	2	
1-30	109-110	v	
1-31	111-112	i	
1-32	112-113	)	
1-33	113-114	(	
1-34	115-116	1	
1-35	117-118	+	
1-36	119-120	v	
1-37	121-122	i	
1-38	123-124	)	
1-39	124-125	E	
1-40	126-127	i	
1-41	128-129	i	
1-42	130-131	=	
1-43	132-133	1	
1-44	134-135	+	
1-45	136-137	v	
1-46	138-140	iE	
1-47	141-142	i	
1-48	142-143	,	
1-49	144-145	[	
1-50	145-149	0035	
1-51	149-150	]	
1-52	151-158	v.sub.i	
1-53	159-161	is	
1-54	162-171	Poisson's	
1-55	172-177	ratio	
1-56	177-178	,	
1-57	179-182	and	
1-58	183-190	E.sub.i	
1-59	191-193	is	
1-60	194-201	Young's	
1-61	202-209	Modulus	
1-62	209-210	.	

#Text=The constants A.sub.i and B.sub.i are determined from the pressure applied to the ID and OD of cylinder i: 16 A i = 1 2 b i 2P i -a i 2P i - 1 b i 2 - a i 2 B i = a i 2 b i 2 ( P i - 1 - P i ) b i 2 - a i 2.
#Text=[0036] The unknown pressures, P.sub.i, between individual cylinders are determined using the requirement of displacement continuity between individual, touching, circular cylinders.
2-1	211-214	The	
2-2	215-224	constants	
2-3	225-232	A.sub.i	
2-4	233-236	and	
2-5	237-244	B.sub.i	
2-6	245-248	are	
2-7	249-259	determined	
2-8	260-264	from	
2-9	265-268	the	
2-10	269-277	pressure	
2-11	278-285	applied	
2-12	286-288	to	
2-13	289-292	the	
2-14	293-295	ID	
2-15	296-299	and	
2-16	300-302	OD	
2-17	303-305	of	
2-18	306-314	cylinder	
2-19	315-316	i	
2-20	316-317	:	
2-21	318-320	16	
2-22	321-322	A	
2-23	323-324	i	
2-24	325-326	=	
2-25	327-328	1	
2-26	329-330	2	
2-27	331-332	b	
2-28	333-334	i	
2-29	335-337	2P	
2-30	338-339	i	
2-31	340-341	-	
2-32	341-342	a	
2-33	343-344	i	
2-34	345-347	2P	
2-35	348-349	i	
2-36	350-351	-	
2-37	352-353	1	
2-38	354-355	b	
2-39	356-357	i	
2-40	358-359	2	
2-41	360-361	-	
2-42	362-363	a	
2-43	364-365	i	
2-44	366-367	2	
2-45	368-369	B	
2-46	370-371	i	
2-47	372-373	=	
2-48	374-375	a	
2-49	376-377	i	
2-50	378-379	2	
2-51	380-381	b	
2-52	382-383	i	
2-53	384-385	2	
2-54	386-387	(	
2-55	388-389	P	
2-56	390-391	i	
2-57	392-393	-	
2-58	394-395	1	
2-59	396-397	-	
2-60	398-399	P	
2-61	400-401	i	
2-62	402-403	)	
2-63	404-405	b	
2-64	406-407	i	
2-65	408-409	2	
2-66	410-411	-	
2-67	412-413	a	
2-68	414-415	i	
2-69	416-417	2	
2-70	417-418	.	
2-71	419-420	[	
2-72	420-424	0036	
2-73	424-425	]	
2-74	426-429	The	
2-75	430-437	unknown	
2-76	438-447	pressures	
2-77	447-448	,	
2-78	449-456	P.sub.i	
2-79	456-457	,	
2-80	458-465	between	
2-81	466-476	individual	
2-82	477-486	cylinders	
2-83	487-490	are	
2-84	491-501	determined	
2-85	502-507	using	
2-86	508-511	the	
2-87	512-523	requirement	
2-88	524-526	of	
2-89	527-539	displacement	
2-90	540-550	continuity	
2-91	551-558	between	
2-92	559-569	individual	
2-93	569-570	,	
2-94	571-579	touching	
2-95	579-580	,	
2-96	581-589	circular	
2-97	590-599	cylinders	
2-98	599-600	.	

#Text=Applying the boundary and continuity conditions leads to n-1 discrete, linear equations for the n-1 unknown contact pressures.
3-1	601-609	Applying	
3-2	610-613	the	
3-3	614-622	boundary	
3-4	623-626	and	
3-5	627-637	continuity	
3-6	638-648	conditions	
3-7	649-654	leads	
3-8	655-657	to	
3-9	658-659	n	
3-10	659-660	-	
3-11	660-661	1	
3-12	662-670	discrete	
3-13	670-671	,	
3-14	672-678	linear	
3-15	679-688	equations	
3-16	689-692	for	
3-17	693-696	the	
3-18	697-698	n	
3-19	698-699	-	
3-20	699-700	1	
3-21	701-708	unknown	
3-22	709-716	contact	
3-23	717-726	pressures	
3-24	726-727	.	

#Text=With this solution, the stresses and displacements can now be estimated using the constants A.sub.i and B.sub.i.
#Text=[0037] The above solution works if the far field stresses are known or symmetrical.
4-1	728-732	With	
4-2	733-737	this	
4-3	738-746	solution	
4-4	746-747	,	
4-5	748-751	the	
4-6	752-760	stresses	
4-7	761-764	and	
4-8	765-778	displacements	
4-9	779-782	can	
4-10	783-786	now	
4-11	787-789	be	
4-12	790-799	estimated	
4-13	800-805	using	
4-14	806-809	the	
4-15	810-819	constants	
4-16	820-827	A.sub.i	
4-17	828-831	and	
4-18	832-839	B.sub.i	
4-19	839-840	.	
4-20	841-842	[	
4-21	842-846	0037	
4-22	846-847	]	
4-23	848-851	The	
4-24	852-857	above	
4-25	858-866	solution	
4-26	867-872	works	
4-27	873-875	if	
4-28	876-879	the	
4-29	880-883	far	
4-30	884-889	field	
4-31	890-898	stresses	
4-32	899-902	are	
4-33	903-908	known	
4-34	909-911	or	
4-35	912-923	symmetrical	
4-36	923-924	.	

#Text=However, because that is not often the case, it would be helpful if there were a way to quickly and accurately find the far field stresses, the true well departure angle relative to the principal stress orientation, and to use that information to calculate fracture direction geometries in order to find the most useful placement of a hydraulic fracture.
#Text=[0038] In one aspect, embodiments of the invention feature techniques for determining and validating the result of a fracturing operation by taking advantage of the accuracy and speed of the boundary equation method of mathematics.
5-1	925-932	However	
5-2	932-933	,	
5-3	934-941	because	
5-4	942-946	that	
5-5	947-949	is	
5-6	950-953	not	
5-7	954-959	often	
5-8	960-963	the	
5-9	964-968	case	
5-10	968-969	,	
5-11	970-972	it	
5-12	973-978	would	
5-13	979-981	be	
5-14	982-989	helpful	
5-15	990-992	if	
5-16	993-998	there	
5-17	999-1003	were	
5-18	1004-1005	a	
5-19	1006-1009	way	
5-20	1010-1012	to	
5-21	1013-1020	quickly	
5-22	1021-1024	and	
5-23	1025-1035	accurately	
5-24	1036-1040	find	
5-25	1041-1044	the	
5-26	1045-1048	far	
5-27	1049-1054	field	
5-28	1055-1063	stresses	
5-29	1063-1064	,	
5-30	1065-1068	the	
5-31	1069-1073	true	
5-32	1074-1078	well	
5-33	1079-1088	departure	
5-34	1089-1094	angle	
5-35	1095-1103	relative	
5-36	1104-1106	to	
5-37	1107-1110	the	
5-38	1111-1120	principal	
5-39	1121-1127	stress	
5-40	1128-1139	orientation	
5-41	1139-1140	,	
5-42	1141-1144	and	
5-43	1145-1147	to	
5-44	1148-1151	use	
5-45	1152-1156	that	
5-46	1157-1168	information	
5-47	1169-1171	to	
5-48	1172-1181	calculate	
5-49	1182-1190	fracture	
5-50	1191-1200	direction	
5-51	1201-1211	geometries	
5-52	1212-1214	in	
5-53	1215-1220	order	
5-54	1221-1223	to	
5-55	1224-1228	find	
5-56	1229-1232	the	
5-57	1233-1237	most	
5-58	1238-1244	useful	
5-59	1245-1254	placement	
5-60	1255-1257	of	
5-61	1258-1259	a	
5-62	1260-1269	hydraulic	
5-63	1270-1278	fracture	
5-64	1278-1279	.	
5-65	1280-1281	[	
5-66	1281-1285	0038	
5-67	1285-1286	]	
5-68	1287-1289	In	
5-69	1290-1293	one	
5-70	1294-1300	aspect	
5-71	1300-1301	,	
5-72	1302-1313	embodiments	
5-73	1314-1316	of	
5-74	1317-1320	the	
5-75	1321-1330	invention	
5-76	1331-1338	feature	
5-77	1339-1349	techniques	
5-78	1350-1353	for	
5-79	1354-1365	determining	
5-80	1366-1369	and	
5-81	1370-1380	validating	
5-82	1381-1384	the	
5-83	1385-1391	result	
5-84	1392-1394	of	
5-85	1395-1396	a	
5-86	1397-1407	fracturing	
5-87	1408-1417	operation	
5-88	1418-1420	by	
5-89	1421-1427	taking	
5-90	1428-1437	advantage	
5-91	1438-1440	of	
5-92	1441-1444	the	
5-93	1445-1453	accuracy	
5-94	1454-1457	and	
5-95	1458-1463	speed	
5-96	1464-1466	of	
5-97	1467-1470	the	
5-98	1471-1479	boundary	
5-99	1480-1488	equation	
5-100	1489-1495	method	
5-101	1496-1498	of	
5-102	1499-1510	mathematics	
5-103	1510-1511	.	

#Text=While on-line pressure monitoring can provide some useful information about the status of a fracturing operation, it is not enough to characterize completely and uniquely the system, and additional information is required, especially for inclined wells.
6-1	1512-1517	While	
6-2	1518-1525	on-line	
6-3	1526-1534	pressure	
6-4	1535-1545	monitoring	
6-5	1546-1549	can	
6-6	1550-1557	provide	
6-7	1558-1562	some	
6-8	1563-1569	useful	
6-9	1570-1581	information	
6-10	1582-1587	about	
6-11	1588-1591	the	
6-12	1592-1598	status	
6-13	1599-1601	of	
6-14	1602-1603	a	
6-15	1604-1614	fracturing	
6-16	1615-1624	operation	
6-17	1624-1625	,	
6-18	1626-1628	it	
6-19	1629-1631	is	
6-20	1632-1635	not	
6-21	1636-1642	enough	
6-22	1643-1645	to	
6-23	1646-1658	characterize	
6-24	1659-1669	completely	
6-25	1670-1673	and	
6-26	1674-1682	uniquely	
6-27	1683-1686	the	
6-28	1687-1693	system	
6-29	1693-1694	,	
6-30	1695-1698	and	
6-31	1699-1709	additional	
6-32	1710-1721	information	
6-33	1722-1724	is	
6-34	1725-1733	required	
6-35	1733-1734	,	
6-36	1735-1745	especially	
6-37	1746-1749	for	
6-38	1750-1758	inclined	
6-39	1759-1764	wells	
6-40	1764-1765	.	

#Text=These measurements monitor the fracturing operation continuously and measure the process variables directly, such as well pressure, wellbore surface stresses, and displacements, which can provide useful on-line information to determine the profile of the propagating fracture.
7-1	1766-1771	These	
7-2	1772-1784	measurements	
7-3	1785-1792	monitor	
7-4	1793-1796	the	
7-5	1797-1807	fracturing	
7-6	1808-1817	operation	
7-7	1818-1830	continuously	
7-8	1831-1834	and	
7-9	1835-1842	measure	
7-10	1843-1846	the	
7-11	1847-1854	process	
7-12	1855-1864	variables	
7-13	1865-1873	directly	
7-14	1873-1874	,	
7-15	1875-1879	such	
7-16	1880-1882	as	
7-17	1883-1887	well	
7-18	1888-1896	pressure	
7-19	1896-1897	,	
7-20	1898-1906	wellbore	
7-21	1907-1914	surface	
7-22	1915-1923	stresses	
7-23	1923-1924	,	
7-24	1925-1928	and	
7-25	1929-1942	displacements	
7-26	1942-1943	,	
7-27	1944-1949	which	
7-28	1950-1953	can	
7-29	1954-1961	provide	
7-30	1962-1968	useful	
7-31	1969-1976	on-line	
7-32	1977-1988	information	
7-33	1989-1991	to	
7-34	1992-2001	determine	
7-35	2002-2005	the	
7-36	2006-2013	profile	
7-37	2014-2016	of	
7-38	2017-2020	the	
7-39	2021-2032	propagating	
7-40	2033-2041	fracture	
7-41	2041-2042	.	
